17	4	3
19	17	20	19	47	41	23	
0	0	0	0	0	7	7	4	1	4	1	3	2	3	4
7	3	8	4	4	6	4	6	3	9	2	3	5	9	15
10	9	9	9	8	10	8	5	2	2	2	2	8	10
7	9	4	4	2	1	3	3	5	4	5	3	6	7	17
9	3	1	8	1	4	2	10	4	6	8	2	16	17
50	4	9	9	6	5	2	5	9	3	8	1	17
75	7	4	9	6	9	9	1	5	1	10	3	13	14	17
200	7	1	5	9	6	1	8	1	2	10	2	11	17
50	2	6	2	5	2	2	2	5	7	5	1	12
75	7	10	8	7	9	1	7	8	4	2	1	17
150	3	9	7	1	6	9	4	1	7	7	1	17
200	10	6	9	10	8	6	5	9	10	5	1	17
9	2	10	9	8	8	6	5	5	6	7	1	17
2	7	5	5	4	5	8	9	6	2	5	2	15	17
3	4	8	6	2	1	10	6	7	8	9	1	17
8	1	6	2	8	8	4	8	2	4	5	1	17
0	0	0	0	0	8	2	10	2	10	10	0
